data;


param FN:= 0;
param D:= 100;
param U_Original:=
         1         1        1.399364e-01
         2         1        1.934709e-03
         3         1       -1.691173e-01
         4         1        1.129822e+00
         5         1       -1.047910e+00
         6         1       -1.389161e-01
         7         1       -2.344807e-01
         8         1       -5.162519e-01
         9         1        1.564395e+00
        10         1       -4.845986e-01
        11         1        1.526517e+00
        12         1        1.297016e+00
        13         1       -5.418378e-01
        14         1       -4.930399e-02
        15         1       -9.905056e-01
        16         1       -7.604974e-01
        17         1       -3.284590e+00
        18         1        1.816458e-01
        19         1       -7.982556e-01
        20         1       -1.678440e+00
        21         1       -9.780060e-01
        22         1        1.176675e+00
        23         1        1.624821e+00
        24         1        1.653576e+00
        25         1        7.737974e-01
        26         1        6.187304e-01
        27         1       -4.155966e-02
        28         1       -3.552689e-01
        29         1        1.508241e+00
        30         1        1.807816e+00
        31         1       -1.941815e+00
        32         1        1.270170e+00
        33         1       -3.880906e-01
        34         1       -1.067676e+00
        35         1        6.112708e-02
        36         1        6.621672e-02
        37         1       -4.868263e-01
        38         1       -7.466878e-01
        39         1        4.380893e-01
        40         1        1.473161e+00
        41         1        1.044160e+00
        42         1       -1.084111e+00
        43         1       -1.437200e+00
        44         1       -7.422258e-01
        45         1        1.085356e+00
        46         1        1.523200e+00
        47         1       -5.377017e-01
        48         1       -5.088537e-01
        49         1        8.576120e-02
        50         1       -2.653983e-01
        51         1        2.529000e-01
        52         1       -6.621885e-01
        53         1        6.967966e-01
        54         1       -7.707823e-01
        55         1        1.368233e-01
        56         1       -6.954724e-01
        57         1        6.135590e-01
        58         1        4.290765e-01
        59         1       -5.956898e-01
        60         1       -1.229014e-01
        61         1       -4.301121e-01
        62         1        6.843870e-01
        63         1        1.796750e-01
        64         1       -5.838691e-01
        65         1       -2.926392e-01
        66         1       -1.593568e-01
        67         1        1.542711e+00
        68         1       -2.473360e+00
        69         1        4.583273e-01
        70         1       -1.615867e+00
        71         1        2.414336e-01
        72         1       -1.778927e+00
        73         1        5.922875e-01
        74         1        5.083439e-01
        75         1        9.801685e-01
        76         1       -2.094695e-01
        77         1        3.315310e-01
        78         1       -1.975047e+00
        79         1        4.278695e-01
        80         1       -1.167692e+00
        81         1       -6.765093e-01
        82         1        7.281537e-01
        83         1       -1.372246e+00
        84         1       -5.539070e-01
        85         1       -2.100472e-01
        86         1        1.135723e+00
        87         1        1.862516e-01
        88         1       -1.697386e+00
        89         1       -1.818848e+00
        90         1       -1.210905e-01
        91         1       -2.696981e-01
        92         1       -1.114575e+00
        93         1        8.910660e-02
        94         1       -1.592964e+00
        95         1       -5.914862e-01
        96         1       -1.267418e+00
        97         1       -4.959081e-01
        98         1       -8.919791e-01
        99         1       -8.429080e-01
       100         1       -6.783109e-01
         1         2        2.792037e-01
         2         2        3.320519e-01
         3         2        2.047076e+00
         4         2       -8.872052e-01
         5         2       -1.780438e+00
         6         2       -7.008580e-01
         7         2        6.860507e-02
         8         2        1.038353e-01
         9         2       -4.941633e-01
        10         2       -6.556935e-01
        11         2       -1.677310e+00
        12         2        3.116542e-01
        13         2        3.148052e-03
        14         2        1.793844e+00
        15         2        6.102699e-01
        16         2        1.013044e+00
        17         2        1.562927e+00
        18         2        1.111481e+00
        19         2        2.207464e-01
        20         2       -5.077185e-01
        21         2       -2.451181e+00
        22         2        1.307344e+00
        23         2        3.100303e-01
        24         2        5.041605e-03
        25         2       -5.097728e-01
        26         2       -1.153123e-01
        27         2        6.500496e-02
        28         2       -1.386650e+00
        29         2        1.080958e+00
        30         2       -8.876796e-02
        31         2        6.955718e-01
        32         2       -2.008030e+00
        33         2        1.060932e+00
        34         2        8.903075e-01
        35         2       -2.405969e-01
        36         2        8.941836e-01
        37         2       -1.015241e+00
        38         2       -7.585517e-01
        39         2       -9.551179e-01
        40         2       -4.581575e-02
        41         2        6.050716e-01
        42         2       -4.746754e-01
        43         2        8.063556e-01
        44         2        4.738294e-02
        45         2       -2.600846e+00
        46         2        9.779093e-02
        47         2       -1.645855e+00
        48         2        2.037257e-01
        49         2       -6.903102e-01
        50         2       -2.529065e-04
        51         2        6.413695e-01
        52         2       -1.220606e+00
        53         2        8.607487e-01
        54         2       -8.491704e-01
        55         2        5.968473e-01
        56         2       -3.621998e-01
        57         2       -4.006568e-01
        58         2       -5.787242e-01
        59         2        7.232941e-02
        60         2        5.958756e-01
        61         2        3.993023e-02
        62         2        3.286102e-01
        63         2        8.777196e-01
        64         2        4.788773e-01
        65         2        1.315044e+00
        66         2       -1.313486e+00
        67         2       -3.052599e-01
        68         2       -5.680090e-01
        69         2       -5.746932e-01
        70         2        1.036411e+00
        71         2       -5.090942e-01
        72         2       -1.113049e+00
        73         2       -7.814003e-01
        74         2        1.050569e+00
        75         2       -1.828109e+00
        76         2       -9.168835e-01
        77         2        3.648617e-01
        78         2        1.005677e+00
        79         2       -1.807804e+00
        80         2        8.359206e-01
        81         2        5.061245e-03
        82         2        1.590416e-01
        83         2        6.424511e-01
        84         2        6.912085e-01
        85         2       -3.725036e-01
        86         2       -1.146160e+00
        87         2       -2.176805e+00
        88         2       -3.777453e-02
        89         2       -1.506533e+00
        90         2       -5.018116e-01
        91         2       -1.965245e+00
        92         2        5.859830e-01
        93         2        3.905180e-01
        94         2        1.441782e+00
        95         2       -7.536242e-01
        96         2       -6.810375e-01
        97         2       -4.575923e-01
        98         2       -5.210658e-01
        99         2       -4.956279e-01
       100         2        1.042869e+00
         1         3       -4.686631e-01
         2         3       -5.171073e-01
         3         3        6.162462e-01
         4         3        5.270667e-01
         5         3       -9.499262e-01
         6         3        1.573409e-02
         7         3       -1.001330e+00
         8         3       -2.064521e-01
         9         3       -3.569908e-01
        10         3        4.685975e-01
        11         3        6.870407e-01
        12         3       -2.352896e-01
        13         3       -8.757621e-01
        14         3        6.452624e-01
        15         3        6.169101e-02
        16         3        1.126528e-01
        17         3        2.975727e-01
        18         3        1.236527e-01
        19         3        5.325577e-01
        20         3        2.706968e-01
        21         3       -9.287178e-01
        22         3       -3.804579e-01
        23         3        4.247133e-01
        24         3        5.085569e-01
        25         3        8.809260e-01
        26         3       -1.299510e+00
        27         3       -1.067867e+00
        28         3        1.259489e+00
        29         3       -2.194486e-01
        30         3       -1.136618e+00
        31         3        2.071066e-02
        32         3        1.804172e+00
        33         3        1.255666e+00
        34         3       -4.100309e-01
        35         3       -2.528149e+00
        36         3        1.662655e+00
        37         3        1.207005e+00
        38         3        4.158168e-01
        39         3       -9.330764e-01
        40         3       -3.145466e-01
        41         3       -1.378623e+00
        42         3        1.164283e+00
        43         3        1.545885e-01
        44         3       -1.539995e+00
        45         3       -7.210203e-01
        46         3        1.534121e+00
        47         3        1.225073e+00
        48         3       -1.199508e+00
        49         3        1.212496e+00
        50         3        7.412009e-01
        51         3        6.796806e-01
        52         3        2.448258e+00
        53         3       -2.484696e+00
        54         3       -1.044891e+00
        55         3       -1.088634e+00
        56         3        9.657440e-01
        57         3       -3.407545e-01
        58         3       -1.074422e+00
        59         3       -8.557938e-01
        60         3        2.158678e-01
        61         3        1.600041e+00
        62         3        1.463410e+00
        63         3       -1.834027e+00
        64         3       -4.407778e-01
        65         3       -5.300239e-01
        66         3        4.871995e-02
        67         3       -3.223600e-01
        68         3        1.203635e-01
        69         3       -6.777053e-01
        70         3        3.073220e-01
        71         3        7.474689e-01
        72         3        1.196836e+00
        73         3       -1.516443e-01
        74         3       -4.035383e-01
        75         3       -1.794959e-02
        76         3       -5.093073e-01
        77         3        7.399638e-01
        78         3        5.751065e-01
        79         3        9.842674e-01
        80         3       -3.564602e-01
        81         3       -8.236699e-01
        82         3       -1.954906e+00
        83         3       -1.394065e+00
        84         3        4.607080e-01
        85         3        1.457015e-01
        86         3       -5.567068e-01
        87         3       -1.281398e+00
        88         3        1.074110e-01
        89         3       -1.067400e-01
        90         3        1.178583e+00
        91         3        1.015270e+00
        92         3       -2.954476e-01
        93         3        7.978060e-01
        94         3        1.221697e+00
        95         3        2.726718e-01
        96         3       -7.114552e-02
        97         3        1.229554e+00
        98         3        5.509507e-02
        99         3       -6.165439e-01
       100         3        6.881211e-01
         1         4        1.301703e+00
         2         4        7.386028e-01
         3         4        7.661923e-01
         4         4       -1.010792e+00
         5         4       -5.090433e-01
         6         4        1.338951e+00
         7         4        1.230516e+00
         8         4       -1.903281e+00
         9         4       -1.056411e+00
        10         4        1.295365e-01
        11         4        8.778908e-01
        12         4        4.750761e-01
        13         4       -5.845962e-01
        14         4       -6.232965e-01
        15         4       -3.183435e-01
        16         4        1.200030e-01
        17         4       -1.826459e-01
        18         4        2.335156e-01
        19         4        6.891281e-01
        20         4        4.102156e-01
        21         4        1.657883e+00
        22         4       -3.425996e-01
        23         4       -6.770150e-01
        24         4        2.409469e-01
        25         4       -1.289117e+00
        26         4        1.308460e+00
        27         4       -1.538199e+00
        28         4       -7.678541e-02
        29         4        2.916040e-01
        30         4       -4.728170e-02
        31         4       -1.681364e+00
        32         4        3.964334e-01
        33         4        1.942478e-01
        34         4        1.317152e+00
        35         4        7.049514e-01
        36         4        4.603490e-01
        37         4        1.895442e+00
        38         4        7.286805e-01
        39         4       -4.500647e-01
        40         4        1.840849e+00
        41         4        5.240251e-01
        42         4        1.144004e+00
        43         4        2.357047e-01
        44         4       -1.443761e-01
        45         4        4.019983e-01
        46         4       -1.373816e+00
        47         4        1.083049e+00
        48         4        4.472721e-01
        49         4        5.513375e-01
        50         4        7.203273e-01
        51         4       -3.915878e-01
        52         4        1.107230e+00
        53         4       -1.421911e+00
        54         4        4.681579e-02
        55         4       -2.008885e-01
        56         4        1.141808e+00
        57         4        3.960896e-01
        58         4       -1.596199e+00
        59         4        1.059172e+00
        60         4       -3.203219e-01
        61         4        9.164730e-01
        62         4       -1.563633e+00
        63         4        1.002198e-02
        64         4       -1.223453e+00
        65         4        3.892756e-01
        66         4       -4.690287e-01
        67         4        1.389443e+00
        68         4        1.572618e+00
        69         4       -1.073289e+00
        70         4        2.853019e-01
        71         4       -5.191294e-01
        72         4        2.127187e-01
        73         4        1.782084e+00
        74         4        1.059876e+00
        75         4       -1.707240e-01
        76         4        3.526638e-02
        77         4       -4.822788e-01
        78         4       -1.070401e-01
        79         4       -1.110392e+00
        80         4        2.958963e-01
        81         4       -8.488344e-01
        82         4        6.161350e-01
        83         4       -4.884198e-01
        84         4       -1.246200e+00
        85         4       -1.001048e+00
        86         4       -9.787479e-01
        87         4       -3.191551e-01
        88         4        4.928985e-01
        89         4        8.906354e-01
        90         4        6.016625e-01
        91         4       -5.517322e-01
        92         4       -8.354175e-01
        93         4       -1.018326e+00
        94         4        2.056902e+00
        95         4        1.043458e+00
        96         4       -4.129229e-01
        97         4       -1.098541e+00
        98         4        1.410461e+00
        99         4        1.085798e-01
       100         4        6.522033e-01
         1         5        1.605489e+00
         2         5        5.273008e-01
         3         5       -7.373722e-01
         4         5        9.532900e-02
         5         5        1.715813e+00
         6         5        1.106371e+00
         7         5        7.528505e-01
         8         5        1.453384e+00
         9         5        1.523462e+00
        10         5       -7.276779e-02
        11         5       -1.762421e-01
        12         5        1.698404e+00
        13         5       -4.012601e-01
        14         5       -1.118825e+00
        15         5       -4.607347e-01
        16         5       -8.259618e-01
        17         5       -6.597076e-01
        18         5       -1.842951e+00
        19         5       -1.256137e-01
        20         5        1.730405e+00
        21         5       -4.352546e-01
        22         5       -7.373584e-01
        23         5       -9.682665e-02
        24         5       -8.091989e-01
        25         5       -5.533355e-01
        26         5        1.403939e+00
        27         5        1.516160e+00
        28         5        7.915972e-01
        29         5        5.180714e-01
        30         5        7.144642e-01
        31         5       -1.487100e+00
        32         5       -5.383875e-02
        33         5       -5.054433e-01
        34         5        1.329534e+00
        35         5        1.702891e-01
        36         5        1.095250e+00
        37         5       -1.933326e-01
        38         5       -7.548619e-01
        39         5        8.466576e-01
        40         5       -7.730465e-01
        41         5        1.574608e+00
        42         5        7.980669e-01
        43         5        2.045824e+00
        44         5       -3.505414e-01
        45         5        3.877792e-01
        46         5       -1.341663e+00
        47         5        2.391925e+00
        48         5        5.822736e-02
        49         5        1.314664e+00
        50         5        1.593025e+00
        51         5        1.223678e+00
        52         5        1.753894e+00
        53         5        7.829621e-01
        54         5        5.774581e-01
        55         5       -1.116444e+00
        56         5       -1.236977e-01
        57         5        1.031911e+00
        58         5        5.939305e-01
        59         5        9.815359e-01
        60         5       -7.027103e-02
        61         5        9.873725e-02
        62         5        1.289366e+00
        63         5       -1.841230e+00
        64         5        2.070244e+00
        65         5        1.099511e-01
        66         5       -1.367684e+00
        67         5        1.167013e+00
        68         5       -1.838835e+00
        69         5        1.761267e+00
        70         5        9.270031e-01
        71         5        8.689972e-01
        72         5        5.435319e-01
        73         5       -1.130212e+00
        74         5        6.163736e-02
        75         5       -3.661553e-02
        76         5        1.349378e+00
        77         5       -6.516197e-01
        78         5       -2.248492e-02
        79         5       -1.010453e+00
        80         5        1.019013e+00
        81         5       -2.247895e+00
        82         5        1.985275e+00
        83         5       -5.321219e-01
        84         5       -3.890348e-01
        85         5       -4.368420e-01
        86         5        5.097168e-01
        87         5        1.009699e+00
        88         5       -9.108820e-01
        89         5       -6.160316e-01
        90         5       -1.310767e-01
        91         5       -3.361882e-01
        92         5        1.423245e-01
        93         5       -2.214581e+00
        94         5       -1.530235e+00
        95         5       -8.052289e-01
        96         5        3.897555e-01
        97         5       -6.644743e-01
        98         5        1.093362e+00
        99         5       -9.021157e-01
       100         5        5.503215e-01
;
param X_Original:=
    1        1.423612e+00
    2        4.703135e-02
    3       -4.924270e+00
    4       -1.033196e-01
    5       -4.665614e-01
    6        4.919322e+00
    7       -2.396892e+00
    8       -1.525952e+00
    9       -1.416796e+00
   10       -2.710703e+00
   11       -3.386517e-01
   12        5.525832e-02
   13       -9.832540e-01
   14        1.543872e+00
   15       -1.878806e+00
   16       -9.584271e-01
   17       -1.293718e+00
   18        1.192966e+00
   19        4.898057e-01
   20        6.006764e-01
   21       -7.432989e-01
   22        5.333200e-01
   23       -3.064618e+00
   24       -3.415565e-01
   25       -1.148360e+00
   26        7.450197e-01
   27        8.371027e-01
   28       -6.763016e-01
   29        7.963261e-01
   30       -1.638610e+00
   31       -5.951982e-01
   32       -2.966111e-01
   33        1.301011e+00
   34       -1.209909e+00
   35        5.710081e-02
   36       -1.216649e+00
   37       -1.589596e-01
   38       -1.645566e+00
   39        1.457906e-01
   40        1.471139e+00
   41        8.699709e-01
   42       -4.483231e-01
   43       -4.299574e-01
   44       -4.502841e-01
   45        1.134996e-01
   46        1.063836e+00
   47        9.688665e+00
   48       -9.803722e-01
   49       -9.738982e-01
   50       -1.191754e+00
   51       -6.707289e-01
   52        3.371688e-01
   53        1.372061e+00
   54        2.904760e+00
   55       -2.799335e-01
   56        1.578310e+00
   57       -7.111778e-02
   58       -5.557894e-01
   59        1.891271e+00
   60       -3.759350e-01
   61       -1.073448e+00
   62        4.532666e-01
   63       -1.643844e-01
   64       -2.689745e-01
   65        1.293976e-01
   66       -3.579524e-02
   67        6.812681e-01
   68        4.711429e+00
   69       -4.350525e-01
   70       -4.643588e-01
   71        5.013300e-01
   72        1.915173e+00
   73       -1.201113e-01
   74        7.599688e-01
   75       -9.569077e-01
   76       -1.758576e-01
   77       -7.401836e-01
   78       -1.809670e-01
   79        4.891110e-01
   80        2.258689e-01
   81       -5.910977e-01
   82        6.224902e-01
   83       -1.815814e-01
   84        3.447232e-01
   85        1.637979e+00
   86        1.255395e-01
   87       -5.314744e-01
   88        2.260191e-01
   89        6.738403e+00
   90        1.265714e+00
   91       -2.631597e+00
   92       -1.973617e+00
   93       -7.672995e-01
   94        1.286464e+00
   95       -6.426470e-01
   96       -2.341932e+00
   97       -7.806237e-01
   98       -3.731555e-01
   99       -2.900276e-01
  100       -6.856810e-01
;
param outliervec_original :=
    1    1
    2    0
    3    0
    4    1
    5    1
    6    0
    7    1
    8    1
    9    1
   10    1
   11    1
   12    1
   13    1
   14    1
   15    1
   16    1
   17    1
   18    1
   19    1
   20    1
   21    1
   22    1
   23    0
   24    1
   25    1
   26    1
   27    1
   28    1
   29    1
   30    1
   31    1
   32    1
   33    1
   34    1
   35    1
   36    1
   37    1
   38    1
   39    1
   40    1
   41    1
   42    1
   43    1
   44    1
   45    1
   46    1
   47    0
   48    1
   49    1
   50    1
   51    1
   52    1
   53    1
   54    0
   55    1
   56    1
   57    1
   58    1
   59    0
   60    1
   61    1
   62    1
   63    1
   64    1
   65    1
   66    1
   67    1
   68    0
   69    1
   70    1
   71    1
   72    1
   73    1
   74    1
   75    1
   76    1
   77    1
   78    1
   79    1
   80    1
   81    1
   82    1
   83    1
   84    1
   85    1
   86    1
   87    1
   88    1
   89    0
   90    1
   91    1
   92    0
   93    1
   94    1
   95    1
   96    1
   97    1
   98    1
   99    1
  100    1
;
param d:= 55;
param r:=5;
param p:=0.900000;
param M:=1000;
param U:=
         1         1        1.399364e-01
         2         1        1.934709e-03
         3         1       -1.691173e-01
         4         1        1.129822e+00
         5         1       -1.389161e-01
         6         1       -5.162519e-01
         7         1        1.564395e+00
         8         1        1.297016e+00
         9         1       -5.418378e-01
        10         1       -9.905056e-01
        11         1       -7.604974e-01
        12         1       -3.284590e+00
        13         1       -7.982556e-01
        14         1        1.624821e+00
        15         1        1.653576e+00
        16         1        7.737974e-01
        17         1        6.187304e-01
        18         1        1.807816e+00
        19         1        6.112708e-02
        20         1        6.621672e-02
        21         1        4.380893e-01
        22         1        1.473161e+00
        23         1       -1.437200e+00
        24         1       -7.422258e-01
        25         1       -5.377017e-01
        26         1       -5.088537e-01
        27         1        2.529000e-01
        28         1       -7.707823e-01
        29         1       -6.954724e-01
        30         1        6.135590e-01
        31         1        4.290765e-01
        32         1       -5.956898e-01
        33         1       -1.229014e-01
        34         1       -5.838691e-01
        35         1        1.542711e+00
        36         1       -2.473360e+00
        37         1        4.583273e-01
        38         1       -1.615867e+00
        39         1        2.414336e-01
        40         1        3.315310e-01
        41         1       -1.975047e+00
        42         1        4.278695e-01
        43         1       -1.167692e+00
        44         1       -6.765093e-01
        45         1        7.281537e-01
        46         1       -1.372246e+00
        47         1        1.135723e+00
        48         1       -1.697386e+00
        49         1       -1.818848e+00
        50         1       -1.210905e-01
        51         1       -1.114575e+00
        52         1       -1.592964e+00
        53         1       -4.959081e-01
        54         1       -8.429080e-01
        55         1       -6.783109e-01
         1         2        2.792037e-01
         2         2        3.320519e-01
         3         2        2.047076e+00
         4         2       -8.872052e-01
         5         2       -7.008580e-01
         6         2        1.038353e-01
         7         2       -4.941633e-01
         8         2        3.116542e-01
         9         2        3.148052e-03
        10         2        6.102699e-01
        11         2        1.013044e+00
        12         2        1.562927e+00
        13         2        2.207464e-01
        14         2        3.100303e-01
        15         2        5.041605e-03
        16         2       -5.097728e-01
        17         2       -1.153123e-01
        18         2       -8.876796e-02
        19         2       -2.405969e-01
        20         2        8.941836e-01
        21         2       -9.551179e-01
        22         2       -4.581575e-02
        23         2        8.063556e-01
        24         2        4.738294e-02
        25         2       -1.645855e+00
        26         2        2.037257e-01
        27         2        6.413695e-01
        28         2       -8.491704e-01
        29         2       -3.621998e-01
        30         2       -4.006568e-01
        31         2       -5.787242e-01
        32         2        7.232941e-02
        33         2        5.958756e-01
        34         2        4.788773e-01
        35         2       -3.052599e-01
        36         2       -5.680090e-01
        37         2       -5.746932e-01
        38         2        1.036411e+00
        39         2       -5.090942e-01
        40         2        3.648617e-01
        41         2        1.005677e+00
        42         2       -1.807804e+00
        43         2        8.359206e-01
        44         2        5.061245e-03
        45         2        1.590416e-01
        46         2        6.424511e-01
        47         2       -1.146160e+00
        48         2       -3.777453e-02
        49         2       -1.506533e+00
        50         2       -5.018116e-01
        51         2        5.859830e-01
        52         2        1.441782e+00
        53         2       -4.575923e-01
        54         2       -4.956279e-01
        55         2        1.042869e+00
         1         3       -4.686631e-01
         2         3       -5.171073e-01
         3         3        6.162462e-01
         4         3        5.270667e-01
         5         3        1.573409e-02
         6         3       -2.064521e-01
         7         3       -3.569908e-01
         8         3       -2.352896e-01
         9         3       -8.757621e-01
        10         3        6.169101e-02
        11         3        1.126528e-01
        12         3        2.975727e-01
        13         3        5.325577e-01
        14         3        4.247133e-01
        15         3        5.085569e-01
        16         3        8.809260e-01
        17         3       -1.299510e+00
        18         3       -1.136618e+00
        19         3       -2.528149e+00
        20         3        1.662655e+00
        21         3       -9.330764e-01
        22         3       -3.145466e-01
        23         3        1.545885e-01
        24         3       -1.539995e+00
        25         3        1.225073e+00
        26         3       -1.199508e+00
        27         3        6.796806e-01
        28         3       -1.044891e+00
        29         3        9.657440e-01
        30         3       -3.407545e-01
        31         3       -1.074422e+00
        32         3       -8.557938e-01
        33         3        2.158678e-01
        34         3       -4.407778e-01
        35         3       -3.223600e-01
        36         3        1.203635e-01
        37         3       -6.777053e-01
        38         3        3.073220e-01
        39         3        7.474689e-01
        40         3        7.399638e-01
        41         3        5.751065e-01
        42         3        9.842674e-01
        43         3       -3.564602e-01
        44         3       -8.236699e-01
        45         3       -1.954906e+00
        46         3       -1.394065e+00
        47         3       -5.567068e-01
        48         3        1.074110e-01
        49         3       -1.067400e-01
        50         3        1.178583e+00
        51         3       -2.954476e-01
        52         3        1.221697e+00
        53         3        1.229554e+00
        54         3       -6.165439e-01
        55         3        6.881211e-01
         1         4        1.301703e+00
         2         4        7.386028e-01
         3         4        7.661923e-01
         4         4       -1.010792e+00
         5         4        1.338951e+00
         6         4       -1.903281e+00
         7         4       -1.056411e+00
         8         4        4.750761e-01
         9         4       -5.845962e-01
        10         4       -3.183435e-01
        11         4        1.200030e-01
        12         4       -1.826459e-01
        13         4        6.891281e-01
        14         4       -6.770150e-01
        15         4        2.409469e-01
        16         4       -1.289117e+00
        17         4        1.308460e+00
        18         4       -4.728170e-02
        19         4        7.049514e-01
        20         4        4.603490e-01
        21         4       -4.500647e-01
        22         4        1.840849e+00
        23         4        2.357047e-01
        24         4       -1.443761e-01
        25         4        1.083049e+00
        26         4        4.472721e-01
        27         4       -3.915878e-01
        28         4        4.681579e-02
        29         4        1.141808e+00
        30         4        3.960896e-01
        31         4       -1.596199e+00
        32         4        1.059172e+00
        33         4       -3.203219e-01
        34         4       -1.223453e+00
        35         4        1.389443e+00
        36         4        1.572618e+00
        37         4       -1.073289e+00
        38         4        2.853019e-01
        39         4       -5.191294e-01
        40         4       -4.822788e-01
        41         4       -1.070401e-01
        42         4       -1.110392e+00
        43         4        2.958963e-01
        44         4       -8.488344e-01
        45         4        6.161350e-01
        46         4       -4.884198e-01
        47         4       -9.787479e-01
        48         4        4.928985e-01
        49         4        8.906354e-01
        50         4        6.016625e-01
        51         4       -8.354175e-01
        52         4        2.056902e+00
        53         4       -1.098541e+00
        54         4        1.085798e-01
        55         4        6.522033e-01
         1         5        1.605489e+00
         2         5        5.273008e-01
         3         5       -7.373722e-01
         4         5        9.532900e-02
         5         5        1.106371e+00
         6         5        1.453384e+00
         7         5        1.523462e+00
         8         5        1.698404e+00
         9         5       -4.012601e-01
        10         5       -4.607347e-01
        11         5       -8.259618e-01
        12         5       -6.597076e-01
        13         5       -1.256137e-01
        14         5       -9.682665e-02
        15         5       -8.091989e-01
        16         5       -5.533355e-01
        17         5        1.403939e+00
        18         5        7.144642e-01
        19         5        1.702891e-01
        20         5        1.095250e+00
        21         5        8.466576e-01
        22         5       -7.730465e-01
        23         5        2.045824e+00
        24         5       -3.505414e-01
        25         5        2.391925e+00
        26         5        5.822736e-02
        27         5        1.223678e+00
        28         5        5.774581e-01
        29         5       -1.236977e-01
        30         5        1.031911e+00
        31         5        5.939305e-01
        32         5        9.815359e-01
        33         5       -7.027103e-02
        34         5        2.070244e+00
        35         5        1.167013e+00
        36         5       -1.838835e+00
        37         5        1.761267e+00
        38         5        9.270031e-01
        39         5        8.689972e-01
        40         5       -6.516197e-01
        41         5       -2.248492e-02
        42         5       -1.010453e+00
        43         5        1.019013e+00
        44         5       -2.247895e+00
        45         5        1.985275e+00
        46         5       -5.321219e-01
        47         5        5.097168e-01
        48         5       -9.108820e-01
        49         5       -6.160316e-01
        50         5       -1.310767e-01
        51         5        1.423245e-01
        52         5       -1.530235e+00
        53         5       -6.644743e-01
        54         5       -9.021157e-01
        55         5        5.503215e-01
;

param theta:=
    1       -9.112041e-01
    2       -2.943645e+00
    3        7.862252e-01
    4        1.371059e+00
    5        7.967597e-01
;
param X_true:=
    1        1.746038e+00
    2        4.703135e-02
    3       -4.924270e+00
    4        6.866112e-01
    5        4.919322e+00
    6       -1.449073e+00
    7       -4.860859e-01
    8       -2.796592e-01
    9       -1.325312e+00
   10       -1.648925e+00
   11       -2.694065e+00
   12       -2.149859e+00
   13        1.341036e+00
   14       -3.064618e+00
   15       -1.436130e+00
   16       -7.202211e-01
   17        1.666519e+00
   18       -1.775195e+00
   19       -2.329528e-01
   20        1.185418e-01
   21        1.736249e+00
   22        4.531899e-01
   23        1.010695e+00
   24       -1.151188e+00
   25        9.688665e+00
   26       -4.194806e-01
   27       -1.145938e+00
   28        2.904760e+00
   29        3.926125e+00
   30        1.717652e+00
   31       -1.247419e+00
   32        1.891271e+00
   33       -1.967507e+00
   34       -1.252111e+00
   35        2.074241e+00
   36        4.711429e+00
   37        6.729984e-01
   38       -2.070540e-01
   39        1.846901e+00
   40       -1.974755e+00
   41       -8.731958e-01
   42        3.378011e+00
   43       -4.593062e-01
   44       -3.000884e+00
   45       -2.421108e-01
   46       -2.830427e+00
   47        9.655169e-01
   48        1.692348e+00
   49        6.738403e+00
   50        3.234603e+00
   51       -1.973617e+00
   52       -2.311479e-01
   53        7.299784e-01
   54        1.172372e+00
   55       -5.780561e-01
;
param X:=
    1        1.423612e+00
    2        4.703135e-02
    3       -4.924270e+00
    4       -1.033196e-01
    5        4.919322e+00
    6       -1.525952e+00
    7       -1.416796e+00
    8        5.525832e-02
    9       -9.832540e-01
   10       -1.878806e+00
   11       -9.584271e-01
   12       -1.293718e+00
   13        4.898057e-01
   14       -3.064618e+00
   15       -3.415565e-01
   16       -1.148360e+00
   17        7.450197e-01
   18       -1.638610e+00
   19        5.710081e-02
   20       -1.216649e+00
   21        1.457906e-01
   22        1.471139e+00
   23       -4.299574e-01
   24       -4.502841e-01
   25        9.688665e+00
   26       -9.803722e-01
   27       -6.707289e-01
   28        2.904760e+00
   29        1.578310e+00
   30       -7.111778e-02
   31       -5.557894e-01
   32        1.891271e+00
   33       -3.759350e-01
   34       -2.689745e-01
   35        6.812681e-01
   36        4.711429e+00
   37       -4.350525e-01
   38       -4.643588e-01
   39        5.013300e-01
   40       -7.401836e-01
   41       -1.809670e-01
   42        4.891110e-01
   43        2.258689e-01
   44       -5.910977e-01
   45        6.224902e-01
   46       -1.815814e-01
   47        1.255395e-01
   48        2.260191e-01
   49        6.738403e+00
   50        1.265714e+00
   51       -1.973617e+00
   52        1.286464e+00
   53       -7.806237e-01
   54       -2.900276e-01
   55       -6.856810e-01
;
param outliervec:=
    1    1
    2    0
    3    0
    4    1
    5    0
    6    1
    7    1
    8    1
    9    1
   10    1
   11    1
   12    1
   13    1
   14    0
   15    1
   16    1
   17    1
   18    1
   19    1
   20    1
   21    1
   22    1
   23    1
   24    1
   25    0
   26    1
   27    1
   28    0
   29    1
   30    1
   31    1
   32    0
   33    1
   34    1
   35    1
   36    0
   37    1
   38    1
   39    1
   40    1
   41    1
   42    1
   43    1
   44    1
   45    1
   46    1
   47    1
   48    1
   49    0
   50    1
   51    0
   52    1
   53    1
   54    1
   55    1
; 
param greedy_time :=         4.930884e-01
;